295 0 211 126 729
729 133 421 0 467
754 405 615 211 0
0 66 484 630 748
14 873 541 704 98
98 478 589 291 795
795 622 295 116 382
631 214 95 433 563
506 718 0 788 336
859 633 162 528 251
565 783 360 319 162
214 197 729 560 630
433 524 778 360 211
716 396 582 59 847
161 311 467 881 484
